Route #1: 77 23 44 26 11 64 40 53
Route #2: 10 68 18 25 42 16 66 60 6
Route #3: 41 14 36 59 35 55 33 61 50
Route #4: 28 74 39 48 13 4 19 9
Route #5: 62 3 54 20 73 31 45
Route #6: 46 34 12 15 8 56
Route #7: 47 65 49 63 27 2
Route #8: 5 30 70 29 37 75
Route #9: 57 7 32 76 51 71 22 38 58
Route #10: 17 72 69 67 43 21 52 24 1
Cost 1272